(declare-fun temp1215_1 () (_ BitVec 64))
(declare-fun var79868 () (_ BitVec 64))
(declare-fun ARGNAME_weight_NAMEEND_DIM () (_ BitVec 64))
(declare-fun temp1215_2 () (_ BitVec 64))
(declare-fun temp1215_3 () (_ BitVec 64))
(declare-fun var79869 () (_ BitVec 64))
(declare-fun k!0 () Bool)
(declare-fun temp1215_4 () (_ BitVec 64))
(declare-fun ARGNAME_groups_NAMEEND () (_ BitVec 64))
(declare-fun var79914 () (_ BitVec 64))
(declare-fun temp1215_5 () (_ BitVec 64))
(declare-fun ARGNAME_stride_NAMEEND_LEN () (_ BitVec 64))
(declare-fun ARGNAME_padding_NAMEEND_LEN () (_ BitVec 64))
(declare-fun ARGNAME_dilation_NAMEEND_LEN () (_ BitVec 64))
(declare-fun ARGNAME_output_padding_NAMEEND_LEN () (_ BitVec 64))
(declare-fun temp1215_6 () (_ BitVec 64))
(declare-fun temp1215_7 () (_ BitVec 64))
(declare-fun ARGNAME_padding_NAMEEND_VAL () (Array (_ BitVec 64) (_ BitVec 64)))
(declare-fun temp1215_8 () (_ BitVec 64))
(declare-fun temp1215_9 () (_ BitVec 64))
(declare-fun temp1215_10 () (_ BitVec 64))
(declare-fun temp1215_11 () (_ BitVec 64))
(declare-fun temp1215_12 () (_ BitVec 64))
(declare-fun temp1215_13 () (_ BitVec 64))
(declare-fun temp1215_14 () (_ BitVec 64))
(declare-fun temp1215_15 () (_ BitVec 64))
(declare-fun temp1215_16 () (_ BitVec 64))
(declare-fun temp1215_17 () (_ BitVec 64))
(declare-fun temp1215_18 () (_ BitVec 64))
(declare-fun temp1215_19 () (_ BitVec 64))
(declare-fun temp1215_20 () (_ BitVec 64))
(declare-fun temp1215_21 () (_ BitVec 64))
(declare-fun temp1215_22 () (_ BitVec 64))
(declare-fun temp1215_23 () (_ BitVec 64))
(declare-fun temp1215_24 () (_ BitVec 64))
(declare-fun temp1215_25 () (_ BitVec 64))
(declare-fun temp1215_26 () (_ BitVec 64))
(declare-fun temp1215_27 () (_ BitVec 64))
(declare-fun temp1215_28 () (_ BitVec 64))
(declare-fun temp1215_29 () (_ BitVec 64))
(declare-fun temp1215_30 () (_ BitVec 64))
(declare-fun temp1215_31 () (_ BitVec 64))
(declare-fun temp1215_32 () (_ BitVec 64))
(declare-fun temp1215_33 () (_ BitVec 64))
(declare-fun temp1215_34 () (_ BitVec 64))
(declare-fun temp1215_35 () (_ BitVec 64))
(declare-fun temp1215_36 () (_ BitVec 64))
(declare-fun temp1215_37 () (_ BitVec 64))
(declare-fun temp1215_38 () (_ BitVec 64))
(declare-fun temp1215_39 () (_ BitVec 64))
(declare-fun temp1215_40 () (_ BitVec 64))
(declare-fun temp1215_41 () (_ BitVec 64))
(declare-fun temp1215_42 () (_ BitVec 64))
(declare-fun temp1215_43 () (_ BitVec 64))
(declare-fun temp1215_44 () (_ BitVec 64))
(declare-fun temp1215_45 () (_ BitVec 64))
(declare-fun temp1215_46 () (_ BitVec 64))
(declare-fun temp1215_47 () (_ BitVec 64))
(declare-fun var1322786 () (_ BitVec 64))
(declare-fun temp1215_48 () (_ BitVec 64))
(declare-fun temp1215_49 () (_ BitVec 64))
(declare-fun temp1215_50 () (_ BitVec 64))
(declare-fun ARGNAME_output_padding_NAMEEND_VAL
             ()
             (Array (_ BitVec 64) (_ BitVec 64)))
(declare-fun temp1215_51 () (_ BitVec 64))
(declare-fun temp1215_52 () (_ BitVec 64))
(declare-fun temp1215_53 () (_ BitVec 64))
(declare-fun temp1215_54 () (_ BitVec 64))
(declare-fun temp1215_55 () (_ BitVec 64))
(declare-fun temp1215_56 () (_ BitVec 64))
(declare-fun temp1215_57 () (_ BitVec 64))
(declare-fun temp1215_58 () (_ BitVec 64))
(declare-fun temp1215_59 () (_ BitVec 64))
(declare-fun temp1215_60 () (_ BitVec 64))
(declare-fun temp1215_61 () (_ BitVec 64))
(declare-fun temp1215_62 () (_ BitVec 64))
(declare-fun temp1215_63 () (_ BitVec 64))
(declare-fun temp1215_64 () (_ BitVec 64))
(declare-fun temp1215_65 () (_ BitVec 64))
(declare-fun temp1215_66 () (_ BitVec 64))
(declare-fun temp1215_67 () (_ BitVec 64))
(declare-fun temp1215_68 () (_ BitVec 64))
(declare-fun temp1215_69 () (_ BitVec 64))
(declare-fun temp1215_70 () (_ BitVec 64))
(declare-fun temp1215_71 () (_ BitVec 64))
(declare-fun temp1215_72 () (_ BitVec 64))
(declare-fun temp1215_73 () (_ BitVec 64))
(declare-fun temp1215_74 () (_ BitVec 64))
(declare-fun temp1215_75 () (_ BitVec 64))
(declare-fun temp1215_76 () (_ BitVec 64))
(declare-fun temp1215_77 () (_ BitVec 64))
(declare-fun temp1215_78 () (_ BitVec 64))
(declare-fun temp1215_79 () (_ BitVec 64))
(declare-fun temp1215_80 () (_ BitVec 64))
(declare-fun temp1215_81 () (_ BitVec 64))
(declare-fun temp1215_82 () (_ BitVec 64))
(declare-fun temp1215_83 () (_ BitVec 64))
(declare-fun temp1215_84 () (_ BitVec 64))
(declare-fun temp1215_85 () (_ BitVec 64))
(declare-fun temp1215_86 () (_ BitVec 64))
(declare-fun temp1215_87 () (_ BitVec 64))
(declare-fun temp1215_88 () (_ BitVec 64))
(declare-fun temp1215_89 () (_ BitVec 64))
(declare-fun temp1215_90 () (_ BitVec 64))
(declare-fun var1322797 () (_ BitVec 64))
(declare-fun temp1215_91 () (_ BitVec 64))
(declare-fun temp1215_92 () (_ BitVec 64))
(declare-fun temp1215_93 () (_ BitVec 64))
(declare-fun ARGNAME_stride_NAMEEND_VAL () (Array (_ BitVec 64) (_ BitVec 64)))
(declare-fun temp1215_94 () (_ BitVec 64))
(declare-fun temp1215_95 () (_ BitVec 64))
(declare-fun temp1215_96 () (_ BitVec 64))
(declare-fun temp1215_97 () (_ BitVec 64))
(declare-fun temp1215_98 () (_ BitVec 64))
(declare-fun temp1215_99 () (_ BitVec 64))
(declare-fun temp1215_100 () (_ BitVec 64))
(declare-fun temp1215_101 () (_ BitVec 64))
(declare-fun temp1215_102 () (_ BitVec 64))
(declare-fun temp1215_103 () (_ BitVec 64))
(declare-fun temp1215_104 () (_ BitVec 64))
(declare-fun temp1215_105 () (_ BitVec 64))
(declare-fun temp1215_106 () (_ BitVec 64))
(declare-fun temp1215_107 () (_ BitVec 64))
(declare-fun temp1215_108 () (_ BitVec 64))
(declare-fun temp1215_109 () (_ BitVec 64))
(declare-fun temp1215_110 () (_ BitVec 64))
(declare-fun temp1215_111 () (_ BitVec 64))
(declare-fun temp1215_112 () (_ BitVec 64))
(declare-fun temp1215_113 () (_ BitVec 64))
(declare-fun temp1215_114 () (_ BitVec 64))
(declare-fun temp1215_115 () (_ BitVec 64))
(declare-fun temp1215_116 () (_ BitVec 64))
(declare-fun temp1215_117 () (_ BitVec 64))
(declare-fun temp1215_118 () (_ BitVec 64))
(declare-fun temp1215_119 () (_ BitVec 64))
(declare-fun temp1215_120 () (_ BitVec 64))
(declare-fun temp1215_121 () (_ BitVec 64))
(declare-fun temp1215_122 () (_ BitVec 64))
(declare-fun temp1215_123 () (_ BitVec 64))
(declare-fun temp1215_124 () (_ BitVec 64))
(declare-fun temp1215_125 () (_ BitVec 64))
(declare-fun temp1215_126 () (_ BitVec 64))
(declare-fun temp1215_127 () (_ BitVec 64))
(declare-fun temp1215_128 () (_ BitVec 64))
(declare-fun temp1215_129 () (_ BitVec 64))
(declare-fun temp1215_130 () (_ BitVec 64))
(declare-fun temp1215_131 () (_ BitVec 64))
(declare-fun temp1215_132 () (_ BitVec 64))
(declare-fun temp1215_133 () (_ BitVec 64))
(declare-fun var1322807 () (_ BitVec 64))
(declare-fun temp1215_134 () (_ BitVec 64))
(declare-fun ARGNAME_input_NAMEEND_DIM () (_ BitVec 64))
(declare-fun var1322819 () (_ BitVec 64))
(declare-fun temp1215_135 () (_ BitVec 64))
(declare-fun temp1215_136 () (_ BitVec 64))
(declare-fun var1310898 () (_ BitVec 64))
(declare-fun temp1215_137 () (_ BitVec 64))
(declare-fun temp1215_138 () (_ BitVec 64))
(declare-fun ARGNAME_weight_NAMEEND_DIMSIZE
             ()
             (Array (_ BitVec 64) (_ BitVec 64)))
(declare-fun temp1215_139 () (_ BitVec 64))
(declare-fun temp1215_140 () (_ BitVec 64))
(declare-fun temp1215_141 () (_ BitVec 64))
(declare-fun temp1215_142 () (_ BitVec 64))
(declare-fun temp1215_143 () (_ BitVec 64))
(declare-fun temp1215_144 () (_ BitVec 64))
(declare-fun temp1215_145 () (_ BitVec 64))
(declare-fun temp1215_146 () (_ BitVec 64))
(declare-fun temp1215_147 () (_ BitVec 64))
(declare-fun temp1215_148 () (_ BitVec 64))
(declare-fun temp1215_149 () (_ BitVec 64))
(declare-fun temp1215_150 () (_ BitVec 64))
(declare-fun temp1215_151 () (_ BitVec 64))
(declare-fun temp1215_152 () (_ BitVec 64))
(declare-fun temp1215_153 () (_ BitVec 64))
(declare-fun temp1215_154 () (_ BitVec 64))
(declare-fun temp1215_156 () (_ BitVec 64))
(declare-fun temp1215_157 () (_ BitVec 64))
(declare-fun temp1215_155 () (_ BitVec 64))
(declare-fun var1322852 () (_ BitVec 64))
(declare-fun temp1215_158 () (_ BitVec 64))
(declare-fun temp1215_159 () (_ BitVec 64))
(declare-fun temp1215_161 () (_ BitVec 64))
(declare-fun temp1215_162 () (_ BitVec 64))
(declare-fun temp1215_160 () (_ BitVec 64))
(declare-fun var1322874 () (_ BitVec 64))
(declare-fun temp1215_163 () (_ BitVec 64))
(declare-fun var1322875 () (_ BitVec 64))
(declare-fun temp1215_164 () (_ BitVec 64))
(declare-fun temp1215_165 () (_ BitVec 64))
(declare-fun ARGNAME_transposed_NAMEEND () (_ BitVec 64))
(declare-fun var1322895 () (_ BitVec 64))
(declare-fun temp1215_166 () (_ BitVec 64))
(declare-fun temp1215_167 () (_ BitVec 64))
(declare-fun var1311786 () (_ BitVec 64))
(declare-fun temp1215_168 () (_ BitVec 64))
(declare-fun temp1215_169 () (_ BitVec 64))
(declare-fun ARGNAME_input_NAMEEND_DIMSIZE
             ()
             (Array (_ BitVec 64) (_ BitVec 64)))
(declare-fun temp1215_170 () (_ BitVec 64))
(declare-fun temp1215_171 () (_ BitVec 64))
(declare-fun temp1215_172 () (_ BitVec 64))
(declare-fun temp1215_173 () (_ BitVec 64))
(declare-fun temp1215_174 () (_ BitVec 64))
(declare-fun temp1215_175 () (_ BitVec 64))
(declare-fun temp1215_176 () (_ BitVec 64))
(declare-fun temp1215_177 () (_ BitVec 64))
(declare-fun temp1215_178 () (_ BitVec 64))
(declare-fun temp1215_179 () (_ BitVec 64))
(declare-fun temp1215_180 () (_ BitVec 64))
(declare-fun temp1215_181 () (_ BitVec 64))
(declare-fun temp1215_182 () (_ BitVec 64))
(declare-fun temp1215_183 () (_ BitVec 64))
(declare-fun temp1215_184 () (_ BitVec 64))
(declare-fun temp1215_185 () (_ BitVec 64))
(declare-fun temp1215_186 () (_ BitVec 64))
(declare-fun temp1215_187 () (_ BitVec 64))
(declare-fun temp1215_188 () (_ BitVec 64))
(declare-fun var1322903 () (_ BitVec 64))
(declare-fun temp1215_189 () (_ BitVec 64))
(declare-fun temp1215_191 () (_ BitVec 64))
(declare-fun temp1215_192 () (_ BitVec 64))
(declare-fun temp1215_190 () (_ BitVec 64))
(declare-fun var1322907 () (_ BitVec 64))
(declare-fun var1322908 () (_ BitVec 64))
(declare-fun temp1215_193 () (_ BitVec 64))
(declare-fun temp1215_194 () (_ BitVec 64))
(declare-fun ARGNAME_bias_NAMEEND_DIM () (_ BitVec 64))
(declare-fun var1322975 () (_ BitVec 64))
(declare-fun temp1215_195 () (_ BitVec 64))
(declare-fun temp1215_196 () (_ BitVec 64))
(declare-fun temp1215_197 () (_ BitVec 64))
(declare-fun temp1215_198 () (_ BitVec 64))
(declare-fun ARGNAME_bias_NAMEEND_DIMSIZE
             ()
             (Array (_ BitVec 64) (_ BitVec 64)))
(declare-fun temp1215_199 () (_ BitVec 64))
(declare-fun temp1215_200 () (_ BitVec 64))
(declare-fun temp1215_201 () (_ BitVec 64))
(declare-fun temp1215_202 () (_ BitVec 64))
(declare-fun temp1215_203 () (_ BitVec 64))
(declare-fun temp1215_204 () (_ BitVec 64))
(declare-fun temp1215_205 () (_ BitVec 64))
(declare-fun temp1215_206 () (_ BitVec 64))
(declare-fun temp1215_207 () (_ BitVec 64))
(declare-fun temp1215_208 () (_ BitVec 64))
(declare-fun temp1215_209 () (_ BitVec 64))
(declare-fun temp1215_210 () (_ BitVec 64))
(declare-fun temp1215_211 () (_ BitVec 64))
(declare-fun temp1215_212 () (_ BitVec 64))
(declare-fun temp1215_213 () (_ BitVec 64))
(declare-fun temp1215_214 () (_ BitVec 64))
(declare-fun temp1215_215 () (_ BitVec 64))
(declare-fun temp1215_216 () (_ BitVec 64))
(declare-fun temp1215_217 () (_ BitVec 64))
(declare-fun var1322977 () (_ BitVec 64))
(declare-fun temp1215_218 () (_ BitVec 64))
(declare-fun temp1215_220 () (_ BitVec 64))
(declare-fun temp1215_221 () (_ BitVec 64))
(declare-fun temp1215_219 () (_ BitVec 64))
(declare-fun var1322980 () (_ BitVec 64))
(declare-fun temp1215_222 () (_ BitVec 64))
(declare-fun temp1215_223 () (_ BitVec 64))
(declare-fun var1848169 () (_ BitVec 64))
(declare-fun var1848178 () (_ BitVec 64))
(declare-fun var1913913 () (_ BitVec 64))
(declare-fun var1913915 () (_ BitVec 64))
(declare-fun temp1215_224 () (_ BitVec 64))
(declare-fun var1979456 () (_ BitVec 64))
(declare-fun var2045003 () (_ BitVec 64))
(declare-fun temp1215_225 () (_ BitVec 64))
(declare-fun var1323065 () (_ BitVec 64))
(declare-fun temp1215_226 () (_ BitVec 64))
(declare-fun var3486735 () (_ BitVec 64))
(declare-fun temp1215_227 () (_ BitVec 64))
(declare-fun var3814415 () (_ BitVec 64))
(declare-fun temp1215_228 () (_ BitVec 64))
(declare-fun var79986 () (_ BitVec 64))
(declare-fun temp1215_229 () (_ BitVec 64))
(declare-fun temp1215_230 () (_ BitVec 64))
(declare-fun var80116 () (_ BitVec 64))
(declare-fun var4796905 () (_ BitVec 64))
(declare-fun temp1215_231 () (_ BitVec 64))
(declare-fun var4784306 () (_ BitVec 64))
(declare-fun temp1215_232 () (_ BitVec 64))
(declare-fun temp1215_233 () (_ BitVec 64))
(declare-fun temp1215_234 () (_ BitVec 64))
(declare-fun var4796924 () (_ BitVec 64))
(declare-fun temp1215_235 () (_ BitVec 64))
(declare-fun var4796925 () (_ BitVec 64))
(declare-fun temp1215_236 () (_ BitVec 64))
(declare-fun temp1215_237 () (_ BitVec 64))
(declare-fun var5050621 () (_ BitVec 64))
(declare-fun var5050566 () (_ BitVec 64))
(declare-fun var4996900 () (_ BitVec 64))
(declare-fun var4996927 () (_ BitVec 64))
(declare-fun var4996929 () (_ BitVec 64))
(declare-fun var4996886 () (_ BitVec 64))
(declare-fun var80129 () (_ BitVec 64))
(declare-fun temp1215_238 () (_ BitVec 64))
(declare-fun var5256835 () (_ BitVec 64))
(declare-fun var5256837 () (_ BitVec 64))
(declare-fun var5322380 () (_ BitVec 64))
(declare-fun var5322381 () (_ BitVec 64))
(declare-fun var5322394 () (_ BitVec 64))
(declare-fun var5322396 () (_ BitVec 64))
(declare-fun temp1215_239 () (_ BitVec 64))
(declare-fun var5322421 () (_ BitVec 64))
(declare-fun var5322423 () (_ BitVec 64))
(declare-fun var5443411 () (_ BitVec 64))
(declare-fun var6042000 () (_ BitVec 64))
(declare-fun temp1215_240 () (_ BitVec 64))
(declare-fun ARGNAME_benchmark_NAMEEND () (_ BitVec 64))
(declare-fun var80315 () (_ BitVec 64))
(declare-fun temp1215_241 () (_ BitVec 64))
(declare-fun ARGNAME_deterministic_NAMEEND () (_ BitVec 64))
(declare-fun var80317 () (_ BitVec 64))
(declare-fun temp1215_242 () (_ BitVec 64))
(declare-fun ARGNAME_allow_tf32_NAMEEND () (_ BitVec 64))
(declare-fun var80319 () (_ BitVec 64))
(declare-fun var6963020 () (_ BitVec 64))
(declare-fun var6963021 () (_ BitVec 64))
(declare-fun var6963022 () (_ BitVec 64))
(declare-fun temp1215_244 () (_ BitVec 64))
(declare-fun temp1215_243 () (_ BitVec 64))
(declare-fun temp1215_245 () (_ BitVec 64))
(declare-fun var8261098 () (_ BitVec 64))
(declare-fun temp1215_247 () (_ BitVec 64))
(declare-fun temp1215_246 () (_ BitVec 64))
(declare-fun temp1215_248 () (_ BitVec 64))
(assert (= temp1215_1 #xfffffffffffffffe))
(assert (= var79868 (bvadd ARGNAME_weight_NAMEEND_DIM temp1215_1)))
(assert (= temp1215_2 #x0000000000000003))
(assert (= var79869
   (ite (bvslt ARGNAME_weight_NAMEEND_DIM temp1215_2)
        #x0000000000000001
        #x0000000000000000)))
(assert (= temp1215_3 #x0000000000000000))
(assert (= var79869 temp1215_3))
(assert (= temp1215_4 #x0000000000000001))
(assert (= var79914
   (ite (bvslt ARGNAME_groups_NAMEEND temp1215_4)
        #x0000000000000001
        #x0000000000000000)))
(assert (= temp1215_5 #x0000000000000000))
(assert (= var79914 temp1215_5))
(assert (= ARGNAME_stride_NAMEEND_LEN var79868))
(assert (= ARGNAME_padding_NAMEEND_LEN var79868))
(assert (= ARGNAME_dilation_NAMEEND_LEN var79868))
(assert (= ARGNAME_output_padding_NAMEEND_LEN var79868))
(assert (= temp1215_6 #x0000000000000000))
(assert (= temp1215_7 temp1215_6))
(assert (= temp1215_8 (select ARGNAME_padding_NAMEEND_VAL temp1215_7)))
(assert (= temp1215_9 #x0000000000000001))
(assert (= temp1215_10 temp1215_9))
(assert (= temp1215_11 (select ARGNAME_padding_NAMEEND_VAL temp1215_10)))
(assert (= temp1215_12 #x0000000000000002))
(assert (= temp1215_13 temp1215_12))
(assert (= temp1215_14 (select ARGNAME_padding_NAMEEND_VAL temp1215_13)))
(assert (= temp1215_15 #x0000000000000003))
(assert (= temp1215_16 temp1215_15))
(assert (= temp1215_17 (select ARGNAME_padding_NAMEEND_VAL temp1215_16)))
(assert (= temp1215_18 #x0000000000000004))
(assert (= temp1215_19 temp1215_18))
(assert (= temp1215_20 (select ARGNAME_padding_NAMEEND_VAL temp1215_19)))
(assert (= temp1215_21 #x0000000000000005))
(assert (= temp1215_22 temp1215_21))
(assert (= temp1215_23 (select ARGNAME_padding_NAMEEND_VAL temp1215_22)))
(assert (= temp1215_24 #x0000000000000000))
(assert (= temp1215_25 #x0000000000000000))
(assert (= temp1215_26 temp1215_25))
(assert (= temp1215_27 (select ARGNAME_padding_NAMEEND_VAL temp1215_26)))
(assert (= temp1215_28 #x0000000000000000))
(assert (= temp1215_29 #x0000000000000001))
(assert (= temp1215_30 temp1215_29))
(assert (= temp1215_31 (select ARGNAME_padding_NAMEEND_VAL temp1215_30)))
(assert (= temp1215_32 #x0000000000000000))
(assert (= temp1215_33 #x0000000000000002))
(assert (= temp1215_34 temp1215_33))
(assert (= temp1215_35 (select ARGNAME_padding_NAMEEND_VAL temp1215_34)))
(assert (= temp1215_36 #x0000000000000000))
(assert (= temp1215_37 #x0000000000000003))
(assert (= temp1215_38 temp1215_37))
(assert (= temp1215_39 (select ARGNAME_padding_NAMEEND_VAL temp1215_38)))
(assert (= temp1215_40 #x0000000000000000))
(assert (= temp1215_41 #x0000000000000004))
(assert (= temp1215_42 temp1215_41))
(assert (= temp1215_43 (select ARGNAME_padding_NAMEEND_VAL temp1215_42)))
(assert (= temp1215_44 #x0000000000000000))
(assert (= temp1215_45 #x0000000000000005))
(assert (= temp1215_46 temp1215_45))
(assert (= temp1215_47 (select ARGNAME_padding_NAMEEND_VAL temp1215_46)))
(assert (= var1322786
   (ite (and true
             (bvslt temp1215_27 temp1215_24)
             (bvslt temp1215_31 temp1215_28)
             (bvslt temp1215_35 temp1215_32)
             (bvslt temp1215_39 temp1215_36)
             (bvslt temp1215_43 temp1215_40)
             (bvslt temp1215_47 temp1215_44))
        #x0000000000000001
        #x0000000000000000)))
(assert (= temp1215_48 #x0000000000000000))
(assert (= var1322786 temp1215_48))
(assert (= temp1215_49 #x0000000000000000))
(assert (= temp1215_50 temp1215_49))
(assert (= temp1215_51 (select ARGNAME_output_padding_NAMEEND_VAL temp1215_50)))
(assert (= temp1215_52 #x0000000000000001))
(assert (= temp1215_53 temp1215_52))
(assert (= temp1215_54 (select ARGNAME_output_padding_NAMEEND_VAL temp1215_53)))
(assert (= temp1215_55 #x0000000000000002))
(assert (= temp1215_56 temp1215_55))
(assert (= temp1215_57 (select ARGNAME_output_padding_NAMEEND_VAL temp1215_56)))
(assert (= temp1215_58 #x0000000000000003))
(assert (= temp1215_59 temp1215_58))
(assert (= temp1215_60 (select ARGNAME_output_padding_NAMEEND_VAL temp1215_59)))
(assert (= temp1215_61 #x0000000000000004))
(assert (= temp1215_62 temp1215_61))
(assert (= temp1215_63 (select ARGNAME_output_padding_NAMEEND_VAL temp1215_62)))
(assert (= temp1215_64 #x0000000000000005))
(assert (= temp1215_65 temp1215_64))
(assert (= temp1215_66 (select ARGNAME_output_padding_NAMEEND_VAL temp1215_65)))
(assert (= temp1215_67 #x0000000000000000))
(assert (= temp1215_68 #x0000000000000000))
(assert (= temp1215_69 temp1215_68))
(assert (= temp1215_70 (select ARGNAME_output_padding_NAMEEND_VAL temp1215_69)))
(assert (= temp1215_71 #x0000000000000000))
(assert (= temp1215_72 #x0000000000000001))
(assert (= temp1215_73 temp1215_72))
(assert (= temp1215_74 (select ARGNAME_output_padding_NAMEEND_VAL temp1215_73)))
(assert (= temp1215_75 #x0000000000000000))
(assert (= temp1215_76 #x0000000000000002))
(assert (= temp1215_77 temp1215_76))
(assert (= temp1215_78 (select ARGNAME_output_padding_NAMEEND_VAL temp1215_77)))
(assert (= temp1215_79 #x0000000000000000))
(assert (= temp1215_80 #x0000000000000003))
(assert (= temp1215_81 temp1215_80))
(assert (= temp1215_82 (select ARGNAME_output_padding_NAMEEND_VAL temp1215_81)))
(assert (= temp1215_83 #x0000000000000000))
(assert (= temp1215_84 #x0000000000000004))
(assert (= temp1215_85 temp1215_84))
(assert (= temp1215_86 (select ARGNAME_output_padding_NAMEEND_VAL temp1215_85)))
(assert (= temp1215_87 #x0000000000000000))
(assert (= temp1215_88 #x0000000000000005))
(assert (= temp1215_89 temp1215_88))
(assert (= temp1215_90 (select ARGNAME_output_padding_NAMEEND_VAL temp1215_89)))
(assert (= var1322797
   (ite (and true
             (bvslt temp1215_70 temp1215_67)
             (bvslt temp1215_74 temp1215_71)
             (bvslt temp1215_78 temp1215_75)
             (bvslt temp1215_82 temp1215_79)
             (bvslt temp1215_86 temp1215_83)
             (bvslt temp1215_90 temp1215_87))
        #x0000000000000001
        #x0000000000000000)))
(assert (= temp1215_91 #x0000000000000000))
(assert (= var1322797 temp1215_91))
(assert (= temp1215_92 #x0000000000000000))
(assert (= temp1215_93 temp1215_92))
(assert (= temp1215_94 (select ARGNAME_stride_NAMEEND_VAL temp1215_93)))
(assert (= temp1215_95 #x0000000000000001))
(assert (= temp1215_96 temp1215_95))
(assert (= temp1215_97 (select ARGNAME_stride_NAMEEND_VAL temp1215_96)))
(assert (= temp1215_98 #x0000000000000002))
(assert (= temp1215_99 temp1215_98))
(assert (= temp1215_100 (select ARGNAME_stride_NAMEEND_VAL temp1215_99)))
(assert (= temp1215_101 #x0000000000000003))
(assert (= temp1215_102 temp1215_101))
(assert (= temp1215_103 (select ARGNAME_stride_NAMEEND_VAL temp1215_102)))
(assert (= temp1215_104 #x0000000000000004))
(assert (= temp1215_105 temp1215_104))
(assert (= temp1215_106 (select ARGNAME_stride_NAMEEND_VAL temp1215_105)))
(assert (= temp1215_107 #x0000000000000005))
(assert (= temp1215_108 temp1215_107))
(assert (= temp1215_109 (select ARGNAME_stride_NAMEEND_VAL temp1215_108)))
(assert (= temp1215_110 #x0000000000000000))
(assert (= temp1215_111 #x0000000000000000))
(assert (= temp1215_112 temp1215_111))
(assert (= temp1215_113 (select ARGNAME_stride_NAMEEND_VAL temp1215_112)))
(assert (= temp1215_114 #x0000000000000000))
(assert (= temp1215_115 #x0000000000000001))
(assert (= temp1215_116 temp1215_115))
(assert (= temp1215_117 (select ARGNAME_stride_NAMEEND_VAL temp1215_116)))
(assert (= temp1215_118 #x0000000000000000))
(assert (= temp1215_119 #x0000000000000002))
(assert (= temp1215_120 temp1215_119))
(assert (= temp1215_121 (select ARGNAME_stride_NAMEEND_VAL temp1215_120)))
(assert (= temp1215_122 #x0000000000000000))
(assert (= temp1215_123 #x0000000000000003))
(assert (= temp1215_124 temp1215_123))
(assert (= temp1215_125 (select ARGNAME_stride_NAMEEND_VAL temp1215_124)))
(assert (= temp1215_126 #x0000000000000000))
(assert (= temp1215_127 #x0000000000000004))
(assert (= temp1215_128 temp1215_127))
(assert (= temp1215_129 (select ARGNAME_stride_NAMEEND_VAL temp1215_128)))
(assert (= temp1215_130 #x0000000000000000))
(assert (= temp1215_131 #x0000000000000005))
(assert (= temp1215_132 temp1215_131))
(assert (= temp1215_133 (select ARGNAME_stride_NAMEEND_VAL temp1215_132)))
(assert (= var1322807
   (ite (and true
             (bvsle temp1215_113 temp1215_110)
             (bvsle temp1215_117 temp1215_114)
             (bvsle temp1215_121 temp1215_118)
             (bvsle temp1215_125 temp1215_122)
             (bvsle temp1215_129 temp1215_126)
             (bvsle temp1215_133 temp1215_130))
        #x0000000000000001
        #x0000000000000000)))
(assert (= temp1215_134 #x0000000000000000))
(assert (= var1322807 temp1215_134))
(assert (= var1322819
   (ite (= ARGNAME_weight_NAMEEND_DIM ARGNAME_input_NAMEEND_DIM)
        #x0000000000000001
        #x0000000000000000)))
(assert (= temp1215_135 #x0000000000000001))
(assert (= var1322819 temp1215_135))
(assert (= temp1215_136 #x0000000000000000))
(assert (= var1310898 temp1215_136))
(assert (= temp1215_137 #x0000000000000000))
(assert (= temp1215_138 temp1215_137))
(assert (= temp1215_139 (select ARGNAME_weight_NAMEEND_DIMSIZE temp1215_138)))
(assert (= temp1215_140 #x0000000000000001))
(assert (= temp1215_141 temp1215_140))
(assert (= temp1215_142 (select ARGNAME_weight_NAMEEND_DIMSIZE temp1215_141)))
(assert (= temp1215_143 #x0000000000000002))
(assert (= temp1215_144 temp1215_143))
(assert (= temp1215_145 (select ARGNAME_weight_NAMEEND_DIMSIZE temp1215_144)))
(assert (= temp1215_146 #x0000000000000003))
(assert (= temp1215_147 temp1215_146))
(assert (= temp1215_148 (select ARGNAME_weight_NAMEEND_DIMSIZE temp1215_147)))
(assert (= temp1215_149 #x0000000000000004))
(assert (= temp1215_150 temp1215_149))
(assert (= temp1215_151 (select ARGNAME_weight_NAMEEND_DIMSIZE temp1215_150)))
(assert (= temp1215_152 #x0000000000000005))
(assert (= temp1215_153 temp1215_152))
(assert (= temp1215_154 (select ARGNAME_weight_NAMEEND_DIMSIZE temp1215_153)))
(assert (= temp1215_156 var1310898))
(assert (= temp1215_157 (select ARGNAME_weight_NAMEEND_DIMSIZE temp1215_156)))
(assert (= temp1215_155 temp1215_157))
(assert (= var1322852
   (ite (bvslt temp1215_155 ARGNAME_groups_NAMEEND)
        #x0000000000000001
        #x0000000000000000)))
(assert (= temp1215_158 #x0000000000000000))
(assert (= var1322852 temp1215_158))
(assert (= temp1215_159 #x0000000000000000))
(assert (= var1310898 temp1215_159))
(assert (= temp1215_161 var1310898))
(assert (= temp1215_162 (select ARGNAME_weight_NAMEEND_DIMSIZE temp1215_161)))
(assert (= temp1215_160 temp1215_162))
(assert (= var1322874 (bvsmod temp1215_160 ARGNAME_groups_NAMEEND)))
(assert (= temp1215_163 #x0000000000000000))
(assert (= var1322875
   (ite (= var1322874 temp1215_163) #x0000000000000001 #x0000000000000000)))
(assert (= temp1215_164 #x0000000000000001))
(assert (= var1322875 temp1215_164))
(assert (= temp1215_165 #x0000000000000000))
(assert (= var1322895
   (ite (= ARGNAME_transposed_NAMEEND temp1215_165)
        #x0000000000000001
        #x0000000000000000)))
(assert (= temp1215_166 #x0000000000000001))
(assert (= var1322895 temp1215_166))
(assert (= temp1215_167 #x0000000000000001))
(assert (= var1311786 temp1215_167))
(assert (= temp1215_168 #x0000000000000000))
(assert (= temp1215_169 temp1215_168))
(assert (= temp1215_170 (select ARGNAME_input_NAMEEND_DIMSIZE temp1215_169)))
(assert (= temp1215_171 #x0000000000000001))
(assert (= temp1215_172 temp1215_171))
(assert (= temp1215_173 (select ARGNAME_input_NAMEEND_DIMSIZE temp1215_172)))
(assert (= temp1215_174 #x0000000000000002))
(assert (= temp1215_175 temp1215_174))
(assert (= temp1215_176 (select ARGNAME_input_NAMEEND_DIMSIZE temp1215_175)))
(assert (= temp1215_177 #x0000000000000003))
(assert (= temp1215_178 temp1215_177))
(assert (= temp1215_179 (select ARGNAME_input_NAMEEND_DIMSIZE temp1215_178)))
(assert (= temp1215_180 #x0000000000000004))
(assert (= temp1215_181 temp1215_180))
(assert (= temp1215_182 (select ARGNAME_input_NAMEEND_DIMSIZE temp1215_181)))
(assert (= temp1215_183 #x0000000000000005))
(assert (= temp1215_184 temp1215_183))
(assert (= temp1215_185 (select ARGNAME_input_NAMEEND_DIMSIZE temp1215_184)))
(assert (= temp1215_186 #x0000000000000000))
(assert (= temp1215_187
   (ite (bvslt var1311786 temp1215_186)
        (bvadd ARGNAME_input_NAMEEND_DIM var1311786)
        var1311786)))
(assert (= temp1215_188 (select ARGNAME_input_NAMEEND_DIMSIZE temp1215_187)))
(assert (= var1322903 temp1215_188))
(assert (bvslt (ite (bvslt var1311786 temp1215_186)
            (bvadd ARGNAME_input_NAMEEND_DIM var1311786)
            var1311786)
       ARGNAME_input_NAMEEND_DIM))
(assert (= temp1215_189 #x0000000000000001))
(assert (= var1311786 temp1215_189))
(assert (= temp1215_191 var1311786))
(assert (= temp1215_192 (select ARGNAME_weight_NAMEEND_DIMSIZE temp1215_191)))
(assert (= temp1215_190 temp1215_192))
(assert (= var1322907 (bvmul ARGNAME_groups_NAMEEND temp1215_190)))
(assert (= var1322908
   (ite (= var1322903 var1322907) #x0000000000000001 #x0000000000000000)))
(assert (= temp1215_193 #x0000000000000001))
(assert (= var1322908 temp1215_193))
(assert (= temp1215_194 #x0000000000000001))
(assert (= var1322975
   (ite (= ARGNAME_bias_NAMEEND_DIM temp1215_194)
        #x0000000000000001
        #x0000000000000000)))
(assert (= temp1215_195 #x0000000000000001))
(assert (= var1322975 temp1215_195))
(assert (= temp1215_196 #x0000000000000000))
(assert (= var1310898 temp1215_196))
(assert (= temp1215_197 #x0000000000000000))
(assert (= temp1215_198 temp1215_197))
(assert (= temp1215_199 (select ARGNAME_bias_NAMEEND_DIMSIZE temp1215_198)))
(assert (= temp1215_200 #x0000000000000001))
(assert (= temp1215_201 temp1215_200))
(assert (= temp1215_202 (select ARGNAME_bias_NAMEEND_DIMSIZE temp1215_201)))
(assert (= temp1215_203 #x0000000000000002))
(assert (= temp1215_204 temp1215_203))
(assert (= temp1215_205 (select ARGNAME_bias_NAMEEND_DIMSIZE temp1215_204)))
(assert (= temp1215_206 #x0000000000000003))
(assert (= temp1215_207 temp1215_206))
(assert (= temp1215_208 (select ARGNAME_bias_NAMEEND_DIMSIZE temp1215_207)))
(assert (= temp1215_209 #x0000000000000004))
(assert (= temp1215_210 temp1215_209))
(assert (= temp1215_211 (select ARGNAME_bias_NAMEEND_DIMSIZE temp1215_210)))
(assert (= temp1215_212 #x0000000000000005))
(assert (= temp1215_213 temp1215_212))
(assert (= temp1215_214 (select ARGNAME_bias_NAMEEND_DIMSIZE temp1215_213)))
(assert (= temp1215_215 #x0000000000000000))
(assert (= temp1215_216
   (ite (bvslt var1310898 temp1215_215)
        (bvadd ARGNAME_bias_NAMEEND_DIM var1310898)
        var1310898)))
(assert (= temp1215_217 (select ARGNAME_bias_NAMEEND_DIMSIZE temp1215_216)))
(assert (= var1322977 temp1215_217))
(assert (bvslt (ite (bvslt var1310898 temp1215_215)
            (bvadd ARGNAME_bias_NAMEEND_DIM var1310898)
            var1310898)
       ARGNAME_bias_NAMEEND_DIM))
(assert (= temp1215_218 #x0000000000000000))
(assert (= var1310898 temp1215_218))
(assert (= temp1215_220 var1310898))
(assert (= temp1215_221 (select ARGNAME_weight_NAMEEND_DIMSIZE temp1215_220)))
(assert (= temp1215_219 temp1215_221))
(assert (= var1322980
   (ite (= var1322977 temp1215_219) #x0000000000000001 #x0000000000000000)))
(assert (= temp1215_222 #x0000000000000001))
(assert (= var1322980 temp1215_222))
(assert (= temp1215_223 #x0000000000000002))
(assert (= var1848169 temp1215_223))
(assert (= var1848178 var1848169))
(assert (= var1913913 var1848178))
(assert (= var1913915
   (ite (bvslt var1913913 ARGNAME_input_NAMEEND_DIM)
        #x0000000000000001
        #x0000000000000000)))
(assert (= temp1215_224
   (ite (= var1913915 #x0000000000000001) ARGNAME_input_NAMEEND_DIM var1848178)))
(assert (= var1979456 var1848178))
(assert (= var2045003 var1979456))
(assert (= temp1215_225 #x0000000000000001))
(assert (= var1323065 temp1215_225))
(assert (= temp1215_226 #x0000000000000001))
(assert (= var3486735 temp1215_226))
(assert (= temp1215_227 #x0000000000000001))
(assert (= var3814415 temp1215_227))
(assert (= temp1215_228 #x0000000000000003))
(assert (= var79986
   (ite (= ARGNAME_weight_NAMEEND_DIM temp1215_228)
        #x0000000000000001
        #x0000000000000000)))
(assert (= temp1215_229 #x0000000000000001))
(assert (= var79986 temp1215_229))
(assert (= temp1215_230 #x0000000000000001))
(assert (= var80116 temp1215_230))
(assert (= var4796905 var80116))
(assert (= temp1215_231 #x0000000000000000))
(assert (= var4784306 temp1215_231))
(assert (= temp1215_232 #x0000000000000000))
(assert (= temp1215_233
   (ite (bvslt var4784306 temp1215_232)
        (bvadd ARGNAME_input_NAMEEND_DIM var4784306)
        var4784306)))
(assert (= temp1215_234 (select ARGNAME_input_NAMEEND_DIMSIZE temp1215_233)))
(assert (= var4796924 temp1215_234))
(assert (bvslt (ite (bvslt var4784306 temp1215_232)
            (bvadd ARGNAME_input_NAMEEND_DIM var4784306)
            var4784306)
       ARGNAME_input_NAMEEND_DIM))
(assert (= temp1215_235 #x0000000000000000))
(assert (= var4796925
   (ite (= var4796924 temp1215_235) #x0000000000000001 #x0000000000000000)))
(assert (= temp1215_236 #x0000000000000001))
(assert (= var4796925 temp1215_236))
(assert (= temp1215_237 #x0000000000000000))
(assert (= var5050621 temp1215_237))
(assert (= var5050566 var5050621))
(assert (= var4996900 var5050566))
(assert (= var4996927 var4996900))
(assert (= var4996929 var4996927))
(assert (= var4996886 var4996929))
(assert (= var80129 var4996886))
(assert (= temp1215_238 #x0000000000000002))
(assert (= var5256835 temp1215_238))
(assert (= var5256837 (bvsub ARGNAME_weight_NAMEEND_DIM var5256835)))
(assert (= var5322380 var5256835))
(assert (= var5322381 var5256837))
(assert (= var5322394 (bvadd var5322381 var5322380)))
(assert (= var5322396
   (ite (bvsgt var5322394 ARGNAME_weight_NAMEEND_DIM)
        #x0000000000000001
        #x0000000000000000)))
(assert (= temp1215_239 #x0000000000000000))
(assert (= var5322396 temp1215_239))
(assert (= var5322421 var5322380))
(assert (= var5322423 var5322381))
(assert (= var5443411 var5322423))
(assert (= var6042000 var80129))
(assert (= temp1215_240 #x0000000000000000))
(assert (= var80315
   (ite (distinct ARGNAME_benchmark_NAMEEND temp1215_240)
        #x0000000000000001
        #x0000000000000000)))
(assert (= temp1215_241 #x0000000000000000))
(assert (= var80317
   (ite (distinct ARGNAME_deterministic_NAMEEND temp1215_241)
        #x0000000000000001
        #x0000000000000000)))
(assert (= temp1215_242 #x0000000000000000))
(assert (= var80319
   (ite (distinct ARGNAME_allow_tf32_NAMEEND temp1215_242)
        #x0000000000000001
        #x0000000000000000)))
(assert (= var6963020 var80315))
(assert (= var6963021 var80317))
(assert (= var6963022 var80319))
(assert (= temp1215_244 #x0000000000000001))
(assert (= temp1215_243 temp1215_244))
(assert (= temp1215_245 #x0000000000000001))
(assert (= var8261098 temp1215_245))
(assert (= temp1215_247 #xffffffffffffffff))
(assert (= temp1215_246 temp1215_247))
(assert (= temp1215_248 #x0000000000000001))
(assert (= var79986 temp1215_248))
(model-add temp1215_1 () (_ BitVec 64) #xfffffffffffffffe)
(model-add var79868
           ()
           (_ BitVec 64)
           (bvadd #xfffffffffffffffe ARGNAME_weight_NAMEEND_DIM))
(model-add temp1215_2 () (_ BitVec 64) #x0000000000000003)
(model-add temp1215_3 () (_ BitVec 64) #x0000000000000000)
(model-add var79869 () (_ BitVec 64) #x0000000000000000)
(model-del k!0)
(model-add ARGNAME_weight_NAMEEND_DIM
           ()
           (_ BitVec 64)
           (ite (or k!0 (= #x0000000000000003 #x8000000000000000))
                #x0000000000000003
                (bvsub #x0000000000000003 #x0000000000000001)))






